c Generated after 1 tries
c Graph with 200 nodes and 1200 edges, Max edges:19900
c generated from an undirected graph
c to solve unweighted MaxCut
p cnf 200 2400
1 16 0
-1 -16 0
1 20 0
-1 -20 0
1 25 0
-1 -25 0
1 26 0
-1 -26 0
1 41 0
-1 -41 0
1 43 0
-1 -43 0
1 49 0
-1 -49 0
1 72 0
-1 -72 0
1 91 0
-1 -91 0
1 113 0
-1 -113 0
1 128 0
-1 -128 0
1 155 0
-1 -155 0
1 158 0
-1 -158 0
1 162 0
-1 -162 0
2 11 0
-2 -11 0
2 20 0
-2 -20 0
2 26 0
-2 -26 0
2 45 0
-2 -45 0
2 78 0
-2 -78 0
2 119 0
-2 -119 0
2 125 0
-2 -125 0
2 133 0
-2 -133 0
2 161 0
-2 -161 0
2 164 0
-2 -164 0
2 187 0
-2 -187 0
2 191 0
-2 -191 0
2 195 0
-2 -195 0
2 196 0
-2 -196 0
3 10 0
-3 -10 0
3 21 0
-3 -21 0
3 56 0
-3 -56 0
3 78 0
-3 -78 0
3 80 0
-3 -80 0
3 85 0
-3 -85 0
3 87 0
-3 -87 0
3 100 0
-3 -100 0
3 116 0
-3 -116 0
3 124 0
-3 -124 0
3 147 0
-3 -147 0
3 160 0
-3 -160 0
3 177 0
-3 -177 0
3 199 0
-3 -199 0
4 8 0
-4 -8 0
4 10 0
-4 -10 0
4 40 0
-4 -40 0
4 43 0
-4 -43 0
4 46 0
-4 -46 0
4 47 0
-4 -47 0
4 61 0
-4 -61 0
4 72 0
-4 -72 0
4 127 0
-4 -127 0
4 131 0
-4 -131 0
4 138 0
-4 -138 0
4 144 0
-4 -144 0
4 152 0
-4 -152 0
4 182 0
-4 -182 0
4 194 0
-4 -194 0
5 63 0
-5 -63 0
5 70 0
-5 -70 0
5 75 0
-5 -75 0
5 78 0
-5 -78 0
5 85 0
-5 -85 0
5 102 0
-5 -102 0
5 113 0
-5 -113 0
5 116 0
-5 -116 0
5 120 0
-5 -120 0
5 152 0
-5 -152 0
5 157 0
-5 -157 0
5 169 0
-5 -169 0
5 172 0
-5 -172 0
5 176 0
-5 -176 0
5 181 0
-5 -181 0
5 187 0
-5 -187 0
6 39 0
-6 -39 0
6 50 0
-6 -50 0
6 87 0
-6 -87 0
6 106 0
-6 -106 0
6 114 0
-6 -114 0
6 126 0
-6 -126 0
6 131 0
-6 -131 0
6 186 0
-6 -186 0
6 194 0
-6 -194 0
7 10 0
-7 -10 0
7 12 0
-7 -12 0
7 40 0
-7 -40 0
7 77 0
-7 -77 0
7 103 0
-7 -103 0
7 114 0
-7 -114 0
7 123 0
-7 -123 0
7 163 0
-7 -163 0
7 185 0
-7 -185 0
8 18 0
-8 -18 0
8 51 0
-8 -51 0
8 105 0
-8 -105 0
8 126 0
-8 -126 0
8 136 0
-8 -136 0
8 144 0
-8 -144 0
8 146 0
-8 -146 0
8 170 0
-8 -170 0
8 177 0
-8 -177 0
8 193 0
-8 -193 0
9 13 0
-9 -13 0
9 18 0
-9 -18 0
9 33 0
-9 -33 0
9 40 0
-9 -40 0
9 57 0
-9 -57 0
9 80 0
-9 -80 0
9 87 0
-9 -87 0
9 92 0
-9 -92 0
9 130 0
-9 -130 0
9 132 0
-9 -132 0
9 136 0
-9 -136 0
9 141 0
-9 -141 0
9 158 0
-9 -158 0
9 167 0
-9 -167 0
9 168 0
-9 -168 0
9 182 0
-9 -182 0
9 184 0
-9 -184 0
9 186 0
-9 -186 0
9 192 0
-9 -192 0
9 194 0
-9 -194 0
10 59 0
-10 -59 0
10 84 0
-10 -84 0
10 106 0
-10 -106 0
10 125 0
-10 -125 0
10 133 0
-10 -133 0
10 161 0
-10 -161 0
10 169 0
-10 -169 0
10 191 0
-10 -191 0
10 199 0
-10 -199 0
11 36 0
-11 -36 0
11 57 0
-11 -57 0
11 68 0
-11 -68 0
11 80 0
-11 -80 0
11 144 0
-11 -144 0
11 187 0
-11 -187 0
11 192 0
-11 -192 0
12 25 0
-12 -25 0
12 52 0
-12 -52 0
12 99 0
-12 -99 0
12 182 0
-12 -182 0
12 196 0
-12 -196 0
12 197 0
-12 -197 0
13 14 0
-13 -14 0
13 19 0
-13 -19 0
13 26 0
-13 -26 0
13 29 0
-13 -29 0
13 57 0
-13 -57 0
13 68 0
-13 -68 0
13 72 0
-13 -72 0
13 145 0
-13 -145 0
13 149 0
-13 -149 0
13 151 0
-13 -151 0
13 154 0
-13 -154 0
13 163 0
-13 -163 0
13 165 0
-13 -165 0
13 175 0
-13 -175 0
13 196 0
-13 -196 0
14 17 0
-14 -17 0
14 19 0
-14 -19 0
14 52 0
-14 -52 0
14 90 0
-14 -90 0
14 98 0
-14 -98 0
14 101 0
-14 -101 0
14 121 0
-14 -121 0
14 134 0
-14 -134 0
14 141 0
-14 -141 0
14 157 0
-14 -157 0
14 170 0
-14 -170 0
14 177 0
-14 -177 0
14 180 0
-14 -180 0
15 66 0
-15 -66 0
15 75 0
-15 -75 0
15 99 0
-15 -99 0
15 104 0
-15 -104 0
15 116 0
-15 -116 0
15 123 0
-15 -123 0
15 137 0
-15 -137 0
15 166 0
-15 -166 0
15 167 0
-15 -167 0
15 170 0
-15 -170 0
15 177 0
-15 -177 0
15 180 0
-15 -180 0
15 182 0
-15 -182 0
15 192 0
-15 -192 0
16 26 0
-16 -26 0
16 36 0
-16 -36 0
16 39 0
-16 -39 0
16 41 0
-16 -41 0
16 47 0
-16 -47 0
16 48 0
-16 -48 0
16 55 0
-16 -55 0
16 56 0
-16 -56 0
16 68 0
-16 -68 0
16 72 0
-16 -72 0
16 77 0
-16 -77 0
16 142 0
-16 -142 0
16 175 0
-16 -175 0
16 190 0
-16 -190 0
17 27 0
-17 -27 0
17 39 0
-17 -39 0
17 48 0
-17 -48 0
17 66 0
-17 -66 0
17 69 0
-17 -69 0
17 83 0
-17 -83 0
17 97 0
-17 -97 0
17 99 0
-17 -99 0
17 127 0
-17 -127 0
17 132 0
-17 -132 0
17 162 0
-17 -162 0
18 23 0
-18 -23 0
18 92 0
-18 -92 0
18 99 0
-18 -99 0
18 101 0
-18 -101 0
18 110 0
-18 -110 0
18 113 0
-18 -113 0
18 190 0
-18 -190 0
18 192 0
-18 -192 0
18 200 0
-18 -200 0
19 42 0
-19 -42 0
19 58 0
-19 -58 0
19 152 0
-19 -152 0
19 154 0
-19 -154 0
19 162 0
-19 -162 0
19 188 0
-19 -188 0
20 23 0
-20 -23 0
20 25 0
-20 -25 0
20 31 0
-20 -31 0
20 115 0
-20 -115 0
20 118 0
-20 -118 0
20 135 0
-20 -135 0
21 86 0
-21 -86 0
21 90 0
-21 -90 0
21 108 0
-21 -108 0
21 111 0
-21 -111 0
21 153 0
-21 -153 0
21 183 0
-21 -183 0
22 28 0
-22 -28 0
22 35 0
-22 -35 0
22 36 0
-22 -36 0
22 71 0
-22 -71 0
22 87 0
-22 -87 0
22 92 0
-22 -92 0
22 109 0
-22 -109 0
22 127 0
-22 -127 0
22 132 0
-22 -132 0
22 134 0
-22 -134 0
22 176 0
-22 -176 0
22 200 0
-22 -200 0
23 30 0
-23 -30 0
23 39 0
-23 -39 0
23 121 0
-23 -121 0
23 159 0
-23 -159 0
23 177 0
-23 -177 0
23 186 0
-23 -186 0
23 200 0
-23 -200 0
24 67 0
-24 -67 0
24 71 0
-24 -71 0
24 89 0
-24 -89 0
24 93 0
-24 -93 0
24 177 0
-24 -177 0
24 192 0
-24 -192 0
25 70 0
-25 -70 0
25 73 0
-25 -73 0
25 74 0
-25 -74 0
25 77 0
-25 -77 0
25 81 0
-25 -81 0
25 102 0
-25 -102 0
25 114 0
-25 -114 0
25 121 0
-25 -121 0
25 135 0
-25 -135 0
25 137 0
-25 -137 0
25 139 0
-25 -139 0
25 157 0
-25 -157 0
25 159 0
-25 -159 0
25 160 0
-25 -160 0
25 173 0
-25 -173 0
25 191 0
-25 -191 0
26 28 0
-26 -28 0
26 40 0
-26 -40 0
26 64 0
-26 -64 0
26 72 0
-26 -72 0
26 101 0
-26 -101 0
26 109 0
-26 -109 0
26 111 0
-26 -111 0
26 112 0
-26 -112 0
26 113 0
-26 -113 0
26 123 0
-26 -123 0
26 182 0
-26 -182 0
27 37 0
-27 -37 0
27 40 0
-27 -40 0
27 47 0
-27 -47 0
27 48 0
-27 -48 0
27 49 0
-27 -49 0
27 52 0
-27 -52 0
27 83 0
-27 -83 0
27 84 0
-27 -84 0
27 111 0
-27 -111 0
27 116 0
-27 -116 0
27 145 0
-27 -145 0
28 31 0
-28 -31 0
28 41 0
-28 -41 0
28 61 0
-28 -61 0
28 71 0
-28 -71 0
28 143 0
-28 -143 0
28 172 0
-28 -172 0
28 180 0
-28 -180 0
28 188 0
-28 -188 0
29 41 0
-29 -41 0
29 44 0
-29 -44 0
29 63 0
-29 -63 0
29 67 0
-29 -67 0
29 87 0
-29 -87 0
29 90 0
-29 -90 0
29 101 0
-29 -101 0
29 103 0
-29 -103 0
29 115 0
-29 -115 0
29 164 0
-29 -164 0
29 172 0
-29 -172 0
30 71 0
-30 -71 0
30 115 0
-30 -115 0
30 126 0
-30 -126 0
30 156 0
-30 -156 0
30 159 0
-30 -159 0
30 163 0
-30 -163 0
30 172 0
-30 -172 0
30 188 0
-30 -188 0
30 190 0
-30 -190 0
31 41 0
-31 -41 0
31 42 0
-31 -42 0
31 60 0
-31 -60 0
31 64 0
-31 -64 0
31 69 0
-31 -69 0
31 91 0
-31 -91 0
31 103 0
-31 -103 0
31 118 0
-31 -118 0
31 136 0
-31 -136 0
31 143 0
-31 -143 0
31 176 0
-31 -176 0
31 190 0
-31 -190 0
32 37 0
-32 -37 0
32 40 0
-32 -40 0
32 61 0
-32 -61 0
32 97 0
-32 -97 0
32 99 0
-32 -99 0
32 111 0
-32 -111 0
32 119 0
-32 -119 0
32 127 0
-32 -127 0
32 137 0
-32 -137 0
32 167 0
-32 -167 0
32 178 0
-32 -178 0
32 199 0
-32 -199 0
33 42 0
-33 -42 0
33 46 0
-33 -46 0
33 50 0
-33 -50 0
33 66 0
-33 -66 0
33 109 0
-33 -109 0
33 114 0
-33 -114 0
33 177 0
-33 -177 0
34 79 0
-34 -79 0
34 83 0
-34 -83 0
34 84 0
-34 -84 0
34 95 0
-34 -95 0
34 111 0
-34 -111 0
34 131 0
-34 -131 0
34 141 0
-34 -141 0
34 172 0
-34 -172 0
34 185 0
-34 -185 0
35 39 0
-35 -39 0
35 88 0
-35 -88 0
35 121 0
-35 -121 0
35 151 0
-35 -151 0
35 153 0
-35 -153 0
35 164 0
-35 -164 0
35 198 0
-35 -198 0
36 106 0
-36 -106 0
36 109 0
-36 -109 0
36 127 0
-36 -127 0
36 157 0
-36 -157 0
36 162 0
-36 -162 0
36 167 0
-36 -167 0
36 172 0
-36 -172 0
36 196 0
-36 -196 0
37 77 0
-37 -77 0
37 90 0
-37 -90 0
37 95 0
-37 -95 0
37 109 0
-37 -109 0
37 114 0
-37 -114 0
37 126 0
-37 -126 0
37 132 0
-37 -132 0
37 144 0
-37 -144 0
37 154 0
-37 -154 0
37 160 0
-37 -160 0
37 185 0
-37 -185 0
38 44 0
-38 -44 0
38 55 0
-38 -55 0
38 96 0
-38 -96 0
38 106 0
-38 -106 0
38 108 0
-38 -108 0
38 115 0
-38 -115 0
38 165 0
-38 -165 0
38 170 0
-38 -170 0
38 175 0
-38 -175 0
38 190 0
-38 -190 0
39 55 0
-39 -55 0
39 99 0
-39 -99 0
39 109 0
-39 -109 0
39 123 0
-39 -123 0
39 138 0
-39 -138 0
39 144 0
-39 -144 0
39 159 0
-39 -159 0
39 190 0
-39 -190 0
39 197 0
-39 -197 0
39 200 0
-39 -200 0
40 41 0
-40 -41 0
40 58 0
-40 -58 0
40 76 0
-40 -76 0
40 102 0
-40 -102 0
40 104 0
-40 -104 0
40 107 0
-40 -107 0
40 110 0
-40 -110 0
40 122 0
-40 -122 0
40 134 0
-40 -134 0
40 140 0
-40 -140 0
40 160 0
-40 -160 0
40 190 0
-40 -190 0
41 59 0
-41 -59 0
41 74 0
-41 -74 0
41 84 0
-41 -84 0
41 106 0
-41 -106 0
41 130 0
-41 -130 0
41 181 0
-41 -181 0
41 187 0
-41 -187 0
42 43 0
-42 -43 0
42 59 0
-42 -59 0
42 64 0
-42 -64 0
42 74 0
-42 -74 0
42 91 0
-42 -91 0
42 99 0
-42 -99 0
42 101 0
-42 -101 0
42 110 0
-42 -110 0
42 111 0
-42 -111 0
42 126 0
-42 -126 0
42 127 0
-42 -127 0
42 132 0
-42 -132 0
42 135 0
-42 -135 0
42 155 0
-42 -155 0
42 165 0
-42 -165 0
42 167 0
-42 -167 0
43 59 0
-43 -59 0
43 93 0
-43 -93 0
43 106 0
-43 -106 0
43 108 0
-43 -108 0
43 124 0
-43 -124 0
43 137 0
-43 -137 0
43 148 0
-43 -148 0
43 155 0
-43 -155 0
43 174 0
-43 -174 0
43 184 0
-43 -184 0
43 198 0
-43 -198 0
44 54 0
-44 -54 0
44 82 0
-44 -82 0
44 86 0
-44 -86 0
44 88 0
-44 -88 0
44 119 0
-44 -119 0
44 146 0
-44 -146 0
44 149 0
-44 -149 0
44 165 0
-44 -165 0
44 174 0
-44 -174 0
44 194 0
-44 -194 0
45 92 0
-45 -92 0
45 111 0
-45 -111 0
45 115 0
-45 -115 0
45 174 0
-45 -174 0
45 184 0
-45 -184 0
46 68 0
-46 -68 0
46 77 0
-46 -77 0
46 83 0
-46 -83 0
46 105 0
-46 -105 0
46 106 0
-46 -106 0
46 115 0
-46 -115 0
46 116 0
-46 -116 0
46 120 0
-46 -120 0
46 122 0
-46 -122 0
46 141 0
-46 -141 0
46 151 0
-46 -151 0
46 155 0
-46 -155 0
46 175 0
-46 -175 0
46 178 0
-46 -178 0
46 179 0
-46 -179 0
46 193 0
-46 -193 0
46 196 0
-46 -196 0
47 62 0
-47 -62 0
47 64 0
-47 -64 0
47 120 0
-47 -120 0
47 135 0
-47 -135 0
47 166 0
-47 -166 0
47 188 0
-47 -188 0
48 62 0
-48 -62 0
48 106 0
-48 -106 0
48 107 0
-48 -107 0
48 114 0
-48 -114 0
48 120 0
-48 -120 0
48 124 0
-48 -124 0
48 128 0
-48 -128 0
48 133 0
-48 -133 0
48 135 0
-48 -135 0
48 139 0
-48 -139 0
48 160 0
-48 -160 0
48 171 0
-48 -171 0
49 55 0
-49 -55 0
49 68 0
-49 -68 0
49 112 0
-49 -112 0
49 125 0
-49 -125 0
49 126 0
-49 -126 0
49 134 0
-49 -134 0
49 141 0
-49 -141 0
49 157 0
-49 -157 0
49 167 0
-49 -167 0
50 157 0
-50 -157 0
50 172 0
-50 -172 0
50 179 0
-50 -179 0
50 191 0
-50 -191 0
51 66 0
-51 -66 0
51 74 0
-51 -74 0
51 81 0
-51 -81 0
51 116 0
-51 -116 0
51 144 0
-51 -144 0
52 78 0
-52 -78 0
52 97 0
-52 -97 0
52 105 0
-52 -105 0
52 144 0
-52 -144 0
52 192 0
-52 -192 0
53 73 0
-53 -73 0
53 115 0
-53 -115 0
53 117 0
-53 -117 0
53 130 0
-53 -130 0
53 162 0
-53 -162 0
53 175 0
-53 -175 0
53 179 0
-53 -179 0
53 180 0
-53 -180 0
54 57 0
-54 -57 0
54 61 0
-54 -61 0
54 89 0
-54 -89 0
54 101 0
-54 -101 0
54 121 0
-54 -121 0
54 142 0
-54 -142 0
54 143 0
-54 -143 0
54 152 0
-54 -152 0
54 161 0
-54 -161 0
54 174 0
-54 -174 0
54 199 0
-54 -199 0
55 58 0
-55 -58 0
55 60 0
-55 -60 0
55 63 0
-55 -63 0
55 148 0
-55 -148 0
55 159 0
-55 -159 0
55 173 0
-55 -173 0
55 176 0
-55 -176 0
55 179 0
-55 -179 0
56 62 0
-56 -62 0
56 95 0
-56 -95 0
56 118 0
-56 -118 0
56 130 0
-56 -130 0
56 179 0
-56 -179 0
56 186 0
-56 -186 0
56 195 0
-56 -195 0
57 70 0
-57 -70 0
57 74 0
-57 -74 0
57 99 0
-57 -99 0
57 107 0
-57 -107 0
57 115 0
-57 -115 0
57 116 0
-57 -116 0
57 149 0
-57 -149 0
57 155 0
-57 -155 0
57 166 0
-57 -166 0
57 168 0
-57 -168 0
58 68 0
-58 -68 0
58 73 0
-58 -73 0
58 95 0
-58 -95 0
58 97 0
-58 -97 0
58 119 0
-58 -119 0
58 135 0
-58 -135 0
58 174 0
-58 -174 0
58 175 0
-58 -175 0
58 178 0
-58 -178 0
58 181 0
-58 -181 0
58 188 0
-58 -188 0
59 64 0
-59 -64 0
59 98 0
-59 -98 0
59 101 0
-59 -101 0
59 103 0
-59 -103 0
59 117 0
-59 -117 0
59 118 0
-59 -118 0
59 120 0
-59 -120 0
59 149 0
-59 -149 0
59 173 0
-59 -173 0
59 197 0
-59 -197 0
60 113 0
-60 -113 0
60 117 0
-60 -117 0
60 130 0
-60 -130 0
60 140 0
-60 -140 0
60 144 0
-60 -144 0
60 171 0
-60 -171 0
60 176 0
-60 -176 0
60 195 0
-60 -195 0
61 77 0
-61 -77 0
61 103 0
-61 -103 0
61 117 0
-61 -117 0
61 134 0
-61 -134 0
61 150 0
-61 -150 0
61 155 0
-61 -155 0
61 163 0
-61 -163 0
61 164 0
-61 -164 0
61 185 0
-61 -185 0
61 197 0
-61 -197 0
62 63 0
-62 -63 0
62 76 0
-62 -76 0
62 86 0
-62 -86 0
62 99 0
-62 -99 0
62 107 0
-62 -107 0
62 109 0
-62 -109 0
62 115 0
-62 -115 0
62 141 0
-62 -141 0
62 155 0
-62 -155 0
62 164 0
-62 -164 0
63 69 0
-63 -69 0
63 77 0
-63 -77 0
63 100 0
-63 -100 0
63 107 0
-63 -107 0
63 137 0
-63 -137 0
63 145 0
-63 -145 0
63 148 0
-63 -148 0
63 164 0
-63 -164 0
63 169 0
-63 -169 0
63 171 0
-63 -171 0
64 122 0
-64 -122 0
64 125 0
-64 -125 0
64 129 0
-64 -129 0
64 147 0
-64 -147 0
64 194 0
-64 -194 0
64 195 0
-64 -195 0
65 66 0
-65 -66 0
65 89 0
-65 -89 0
65 103 0
-65 -103 0
65 134 0
-65 -134 0
65 180 0
-65 -180 0
65 198 0
-65 -198 0
66 96 0
-66 -96 0
66 99 0
-66 -99 0
66 100 0
-66 -100 0
66 104 0
-66 -104 0
66 167 0
-66 -167 0
66 177 0
-66 -177 0
67 82 0
-67 -82 0
67 96 0
-67 -96 0
67 119 0
-67 -119 0
67 121 0
-67 -121 0
67 140 0
-67 -140 0
67 149 0
-67 -149 0
67 187 0
-67 -187 0
68 72 0
-68 -72 0
68 75 0
-68 -75 0
68 87 0
-68 -87 0
68 94 0
-68 -94 0
68 101 0
-68 -101 0
68 110 0
-68 -110 0
68 131 0
-68 -131 0
68 141 0
-68 -141 0
68 159 0
-68 -159 0
69 74 0
-69 -74 0
69 91 0
-69 -91 0
69 92 0
-69 -92 0
69 101 0
-69 -101 0
69 106 0
-69 -106 0
69 123 0
-69 -123 0
69 136 0
-69 -136 0
69 177 0
-69 -177 0
69 178 0
-69 -178 0
69 188 0
-69 -188 0
69 189 0
-69 -189 0
69 200 0
-69 -200 0
70 80 0
-70 -80 0
70 109 0
-70 -109 0
70 119 0
-70 -119 0
70 123 0
-70 -123 0
70 130 0
-70 -130 0
70 132 0
-70 -132 0
70 175 0
-70 -175 0
70 178 0
-70 -178 0
70 187 0
-70 -187 0
70 190 0
-70 -190 0
70 194 0
-70 -194 0
71 78 0
-71 -78 0
71 95 0
-71 -95 0
71 113 0
-71 -113 0
71 122 0
-71 -122 0
71 138 0
-71 -138 0
71 152 0
-71 -152 0
71 179 0
-71 -179 0
71 191 0
-71 -191 0
72 120 0
-72 -120 0
72 137 0
-72 -137 0
72 150 0
-72 -150 0
72 153 0
-72 -153 0
72 162 0
-72 -162 0
72 183 0
-72 -183 0
73 78 0
-73 -78 0
73 85 0
-73 -85 0
73 93 0
-73 -93 0
73 114 0
-73 -114 0
73 119 0
-73 -119 0
73 140 0
-73 -140 0
73 159 0
-73 -159 0
73 166 0
-73 -166 0
73 189 0
-73 -189 0
74 91 0
-74 -91 0
74 100 0
-74 -100 0
74 112 0
-74 -112 0
74 152 0
-74 -152 0
74 154 0
-74 -154 0
74 184 0
-74 -184 0
75 85 0
-75 -85 0
75 103 0
-75 -103 0
75 105 0
-75 -105 0
76 82 0
-76 -82 0
76 83 0
-76 -83 0
76 101 0
-76 -101 0
76 111 0
-76 -111 0
76 144 0
-76 -144 0
76 160 0
-76 -160 0
76 166 0
-76 -166 0
76 193 0
-76 -193 0
77 138 0
-77 -138 0
77 148 0
-77 -148 0
78 85 0
-78 -85 0
78 91 0
-78 -91 0
78 117 0
-78 -117 0
78 120 0
-78 -120 0
78 146 0
-78 -146 0
78 150 0
-78 -150 0
78 159 0
-78 -159 0
78 175 0
-78 -175 0
78 177 0
-78 -177 0
78 183 0
-78 -183 0
79 82 0
-79 -82 0
79 115 0
-79 -115 0
79 125 0
-79 -125 0
79 150 0
-79 -150 0
79 161 0
-79 -161 0
79 165 0
-79 -165 0
79 177 0
-79 -177 0
79 191 0
-79 -191 0
79 200 0
-79 -200 0
80 95 0
-80 -95 0
80 100 0
-80 -100 0
80 135 0
-80 -135 0
80 136 0
-80 -136 0
80 138 0
-80 -138 0
80 140 0
-80 -140 0
80 158 0
-80 -158 0
80 171 0
-80 -171 0
80 190 0
-80 -190 0
81 113 0
-81 -113 0
81 114 0
-81 -114 0
81 143 0
-81 -143 0
81 191 0
-81 -191 0
82 103 0
-82 -103 0
82 104 0
-82 -104 0
82 108 0
-82 -108 0
82 127 0
-82 -127 0
82 133 0
-82 -133 0
82 134 0
-82 -134 0
82 140 0
-82 -140 0
82 142 0
-82 -142 0
82 158 0
-82 -158 0
82 183 0
-82 -183 0
82 184 0
-82 -184 0
83 98 0
-83 -98 0
83 108 0
-83 -108 0
83 121 0
-83 -121 0
83 180 0
-83 -180 0
83 181 0
-83 -181 0
84 86 0
-84 -86 0
84 88 0
-84 -88 0
84 96 0
-84 -96 0
84 116 0
-84 -116 0
84 120 0
-84 -120 0
84 133 0
-84 -133 0
84 138 0
-84 -138 0
84 145 0
-84 -145 0
84 146 0
-84 -146 0
84 149 0
-84 -149 0
84 162 0
-84 -162 0
84 189 0
-84 -189 0
84 190 0
-84 -190 0
85 113 0
-85 -113 0
85 122 0
-85 -122 0
85 152 0
-85 -152 0
85 186 0
-85 -186 0
85 198 0
-85 -198 0
86 87 0
-86 -87 0
86 113 0
-86 -113 0
86 129 0
-86 -129 0
86 143 0
-86 -143 0
86 149 0
-86 -149 0
86 158 0
-86 -158 0
86 164 0
-86 -164 0
86 166 0
-86 -166 0
86 172 0
-86 -172 0
86 174 0
-86 -174 0
86 182 0
-86 -182 0
86 198 0
-86 -198 0
87 96 0
-87 -96 0
87 138 0
-87 -138 0
87 141 0
-87 -141 0
87 146 0
-87 -146 0
87 159 0
-87 -159 0
87 169 0
-87 -169 0
87 174 0
-87 -174 0
87 179 0
-87 -179 0
88 91 0
-88 -91 0
88 103 0
-88 -103 0
88 144 0
-88 -144 0
88 146 0
-88 -146 0
88 147 0
-88 -147 0
88 152 0
-88 -152 0
89 106 0
-89 -106 0
89 109 0
-89 -109 0
89 167 0
-89 -167 0
89 179 0
-89 -179 0
90 93 0
-90 -93 0
90 94 0
-90 -94 0
90 119 0
-90 -119 0
90 121 0
-90 -121 0
90 131 0
-90 -131 0
90 137 0
-90 -137 0
90 152 0
-90 -152 0
90 154 0
-90 -154 0
90 163 0
-90 -163 0
91 92 0
-91 -92 0
91 129 0
-91 -129 0
91 138 0
-91 -138 0
91 183 0
-91 -183 0
91 185 0
-91 -185 0
91 189 0
-91 -189 0
92 104 0
-92 -104 0
92 132 0
-92 -132 0
92 151 0
-92 -151 0
92 164 0
-92 -164 0
92 193 0
-92 -193 0
92 194 0
-92 -194 0
93 97 0
-93 -97 0
93 135 0
-93 -135 0
93 138 0
-93 -138 0
93 147 0
-93 -147 0
93 154 0
-93 -154 0
93 173 0
-93 -173 0
93 178 0
-93 -178 0
93 183 0
-93 -183 0
93 196 0
-93 -196 0
93 199 0
-93 -199 0
94 153 0
-94 -153 0
94 168 0
-94 -168 0
94 171 0
-94 -171 0
94 173 0
-94 -173 0
94 190 0
-94 -190 0
94 191 0
-94 -191 0
95 106 0
-95 -106 0
95 120 0
-95 -120 0
95 151 0
-95 -151 0
95 177 0
-95 -177 0
96 127 0
-96 -127 0
96 130 0
-96 -130 0
96 169 0
-96 -169 0
96 173 0
-96 -173 0
97 116 0
-97 -116 0
97 126 0
-97 -126 0
97 161 0
-97 -161 0
97 168 0
-97 -168 0
97 194 0
-97 -194 0
98 103 0
-98 -103 0
98 114 0
-98 -114 0
98 122 0
-98 -122 0
98 123 0
-98 -123 0
98 130 0
-98 -130 0
98 144 0
-98 -144 0
98 146 0
-98 -146 0
98 151 0
-98 -151 0
98 182 0
-98 -182 0
98 190 0
-98 -190 0
99 105 0
-99 -105 0
99 108 0
-99 -108 0
99 111 0
-99 -111 0
99 129 0
-99 -129 0
99 130 0
-99 -130 0
99 171 0
-99 -171 0
99 180 0
-99 -180 0
99 196 0
-99 -196 0
100 104 0
-100 -104 0
100 116 0
-100 -116 0
100 123 0
-100 -123 0
100 127 0
-100 -127 0
100 130 0
-100 -130 0
100 144 0
-100 -144 0
100 150 0
-100 -150 0
100 196 0
-100 -196 0
101 127 0
-101 -127 0
101 135 0
-101 -135 0
101 143 0
-101 -143 0
101 156 0
-101 -156 0
101 160 0
-101 -160 0
101 187 0
-101 -187 0
102 167 0
-102 -167 0
102 174 0
-102 -174 0
103 114 0
-103 -114 0
103 174 0
-103 -174 0
103 192 0
-103 -192 0
104 173 0
-104 -173 0
104 188 0
-104 -188 0
104 200 0
-104 -200 0
105 106 0
-105 -106 0
105 112 0
-105 -112 0
105 155 0
-105 -155 0
105 173 0
-105 -173 0
105 192 0
-105 -192 0
106 122 0
-106 -122 0
107 138 0
-107 -138 0
107 156 0
-107 -156 0
107 166 0
-107 -166 0
107 168 0
-107 -168 0
107 174 0
-107 -174 0
107 188 0
-107 -188 0
107 195 0
-107 -195 0
107 199 0
-107 -199 0
108 109 0
-108 -109 0
108 146 0
-108 -146 0
108 151 0
-108 -151 0
108 153 0
-108 -153 0
108 158 0
-108 -158 0
108 182 0
-108 -182 0
108 183 0
-108 -183 0
109 118 0
-109 -118 0
109 141 0
-109 -141 0
109 182 0
-109 -182 0
109 199 0
-109 -199 0
110 131 0
-110 -131 0
110 168 0
-110 -168 0
110 174 0
-110 -174 0
110 178 0
-110 -178 0
110 193 0
-110 -193 0
111 113 0
-111 -113 0
111 114 0
-111 -114 0
111 148 0
-111 -148 0
111 156 0
-111 -156 0
111 188 0
-111 -188 0
111 190 0
-111 -190 0
112 124 0
-112 -124 0
112 157 0
-112 -157 0
112 160 0
-112 -160 0
112 161 0
-112 -161 0
112 199 0
-112 -199 0
113 129 0
-113 -129 0
113 134 0
-113 -134 0
113 149 0
-113 -149 0
113 162 0
-113 -162 0
113 171 0
-113 -171 0
113 179 0
-113 -179 0
113 189 0
-113 -189 0
113 192 0
-113 -192 0
114 127 0
-114 -127 0
114 130 0
-114 -130 0
114 138 0
-114 -138 0
114 168 0
-114 -168 0
114 174 0
-114 -174 0
114 178 0
-114 -178 0
114 200 0
-114 -200 0
115 144 0
-115 -144 0
115 147 0
-115 -147 0
115 154 0
-115 -154 0
115 184 0
-115 -184 0
115 192 0
-115 -192 0
116 118 0
-116 -118 0
116 147 0
-116 -147 0
116 148 0
-116 -148 0
116 152 0
-116 -152 0
116 177 0
-116 -177 0
116 194 0
-116 -194 0
117 127 0
-117 -127 0
117 173 0
-117 -173 0
117 190 0
-117 -190 0
118 180 0
-118 -180 0
118 184 0
-118 -184 0
118 193 0
-118 -193 0
119 144 0
-119 -144 0
119 197 0
-119 -197 0
120 123 0
-120 -123 0
120 136 0
-120 -136 0
120 149 0
-120 -149 0
120 158 0
-120 -158 0
120 163 0
-120 -163 0
120 168 0
-120 -168 0
120 189 0
-120 -189 0
121 125 0
-121 -125 0
121 133 0
-121 -133 0
121 140 0
-121 -140 0
121 161 0
-121 -161 0
121 198 0
-121 -198 0
122 126 0
-122 -126 0
122 132 0
-122 -132 0
122 136 0
-122 -136 0
122 145 0
-122 -145 0
122 146 0
-122 -146 0
122 152 0
-122 -152 0
122 161 0
-122 -161 0
122 166 0
-122 -166 0
122 176 0
-122 -176 0
123 159 0
-123 -159 0
123 185 0
-123 -185 0
124 137 0
-124 -137 0
124 138 0
-124 -138 0
124 141 0
-124 -141 0
124 149 0
-124 -149 0
124 168 0
-124 -168 0
125 132 0
-125 -132 0
125 195 0
-125 -195 0
125 197 0
-125 -197 0
126 151 0
-126 -151 0
126 158 0
-126 -158 0
126 163 0
-126 -163 0
126 167 0
-126 -167 0
127 137 0
-127 -137 0
127 147 0
-127 -147 0
127 173 0
-127 -173 0
127 191 0
-127 -191 0
128 131 0
-128 -131 0
128 158 0
-128 -158 0
128 172 0
-128 -172 0
128 174 0
-128 -174 0
128 182 0
-128 -182 0
128 185 0
-128 -185 0
128 194 0
-128 -194 0
129 138 0
-129 -138 0
129 147 0
-129 -147 0
129 177 0
-129 -177 0
130 132 0
-130 -132 0
130 133 0
-130 -133 0
130 139 0
-130 -139 0
130 154 0
-130 -154 0
130 165 0
-130 -165 0
130 169 0
-130 -169 0
130 179 0
-130 -179 0
131 142 0
-131 -142 0
131 145 0
-131 -145 0
131 166 0
-131 -166 0
131 195 0
-131 -195 0
132 137 0
-132 -137 0
132 151 0
-132 -151 0
132 155 0
-132 -155 0
132 178 0
-132 -178 0
132 182 0
-132 -182 0
132 191 0
-132 -191 0
133 141 0
-133 -141 0
133 161 0
-133 -161 0
133 175 0
-133 -175 0
133 200 0
-133 -200 0
134 140 0
-134 -140 0
134 144 0
-134 -144 0
134 152 0
-134 -152 0
134 186 0
-134 -186 0
134 199 0
-134 -199 0
135 156 0
-135 -156 0
135 185 0
-135 -185 0
136 140 0
-136 -140 0
137 147 0
-137 -147 0
137 160 0
-137 -160 0
137 169 0
-137 -169 0
137 184 0
-137 -184 0
138 141 0
-138 -141 0
138 143 0
-138 -143 0
138 162 0
-138 -162 0
139 197 0
-139 -197 0
140 141 0
-140 -141 0
140 157 0
-140 -157 0
140 179 0
-140 -179 0
140 182 0
-140 -182 0
140 187 0
-140 -187 0
140 191 0
-140 -191 0
141 160 0
-141 -160 0
141 189 0
-141 -189 0
142 180 0
-142 -180 0
142 182 0
-142 -182 0
142 184 0
-142 -184 0
143 148 0
-143 -148 0
143 165 0
-143 -165 0
143 171 0
-143 -171 0
143 197 0
-143 -197 0
144 150 0
-144 -150 0
144 162 0
-144 -162 0
144 192 0
-144 -192 0
144 193 0
-144 -193 0
145 149 0
-145 -149 0
145 169 0
-145 -169 0
145 171 0
-145 -171 0
145 181 0
-145 -181 0
146 152 0
-146 -152 0
146 161 0
-146 -161 0
146 176 0
-146 -176 0
146 192 0
-146 -192 0
146 193 0
-146 -193 0
146 196 0
-146 -196 0
147 195 0
-147 -195 0
148 150 0
-148 -150 0
148 154 0
-148 -154 0
148 164 0
-148 -164 0
148 199 0
-148 -199 0
149 161 0
-149 -161 0
149 177 0
-149 -177 0
149 182 0
-149 -182 0
149 184 0
-149 -184 0
149 200 0
-149 -200 0
150 154 0
-150 -154 0
151 191 0
-151 -191 0
152 161 0
-152 -161 0
152 166 0
-152 -166 0
152 190 0
-152 -190 0
153 165 0
-153 -165 0
153 175 0
-153 -175 0
153 198 0
-153 -198 0
154 155 0
-154 -155 0
154 159 0
-154 -159 0
154 176 0
-154 -176 0
154 190 0
-154 -190 0
156 159 0
-156 -159 0
156 162 0
-156 -162 0
156 186 0
-156 -186 0
156 191 0
-156 -191 0
157 163 0
-157 -163 0
157 192 0
-157 -192 0
158 166 0
-158 -166 0
158 174 0
-158 -174 0
158 180 0
-158 -180 0
158 190 0
-158 -190 0
158 200 0
-158 -200 0
159 160 0
-159 -160 0
159 174 0
-159 -174 0
159 178 0
-159 -178 0
159 179 0
-159 -179 0
159 183 0
-159 -183 0
159 190 0
-159 -190 0
160 166 0
-160 -166 0
160 193 0
-160 -193 0
161 162 0
-161 -162 0
161 191 0
-161 -191 0
161 194 0
-161 -194 0
161 196 0
-161 -196 0
163 169 0
-163 -169 0
163 170 0
-163 -170 0
164 166 0
-164 -166 0
164 173 0
-164 -173 0
164 187 0
-164 -187 0
165 174 0
-165 -174 0
166 168 0
-166 -168 0
166 174 0
-166 -174 0
166 188 0
-166 -188 0
167 175 0
-167 -175 0
167 178 0
-167 -178 0
167 196 0
-167 -196 0
168 191 0
-168 -191 0
169 194 0
-169 -194 0
169 195 0
-169 -195 0
170 175 0
-170 -175 0
170 179 0
-170 -179 0
170 187 0
-170 -187 0
171 179 0
-171 -179 0
173 180 0
-173 -180 0
173 197 0
-173 -197 0
173 198 0
-173 -198 0
174 186 0
-174 -186 0
174 192 0
-174 -192 0
174 193 0
-174 -193 0
175 193 0
-175 -193 0
176 185 0
-176 -185 0
177 186 0
-177 -186 0
177 191 0
-177 -191 0
177 192 0
-177 -192 0
177 195 0
-177 -195 0
178 189 0
-178 -189 0
178 199 0
-178 -199 0
179 199 0
-179 -199 0
180 183 0
-180 -183 0
181 191 0
-181 -191 0
183 186 0
-183 -186 0
184 198 0
-184 -198 0
186 189 0
-186 -189 0
188 199 0
-188 -199 0
189 190 0
-189 -190 0
190 195 0
-190 -195 0
193 194 0
-193 -194 0
194 196 0
-194 -196 0
